webassembly/ejemplos_dzn/folder16_json_2.dzn
TERM = { '.', 's(2)', 's(5)', 's(4)', 'in_1', 'local_0', 'local_1', 'in_2', 's(6)', 's(1)', 's(0)', 's(7)', 's(3)', 'in_0'};
null = '.';
s = 16;
n = 9;
ndeps = 5;
max_registers_sz = 5;
NR = 2;
registers = [|'local_0', 's(4)', |'local_1', 's(6)'|];
dependencies = [|'i32.load8_s_4', 'call[function_index(0)]_7', |'call[function_index(0)]_7', 'i32.load16_u_11', |'call[function_index(1)]_12', 'i32.store8_14', |'i32.load16_s_6', 'call[function_index(0)]_7', |'i32.load16_u_11', 'call[function_index(1)]_12'|];
GET_ENUM = { GET1, GET2, GET3, GET4, GET5, GET6, GET7};
SET_ENUM = { SET1, SET2, SET3, SET4, SET5, SET6, SET7};
TEE_ENUM = { TEE1, TEE2, TEE3, TEE4, TEE5, TEE6, TEE7};
N = 8;
OP = { 'call[function_index(0)]_7', 'call[function_index(1)]_12', 'i32.const_0', 'i32.load8_s_4', 'i32.load16_s_6', 'i32.load16_u_11', 'i32.const_1', 'i32.store8_14' };
in_ops = [2, 2, 0, 1, 1, 1, 0, 2 ];
out_ops = [3, 0, 1, 1, 1, 1, 1, 0 ];
in1 = ['s(1)', 's(5)', '.', 's(6)', 'in_0', 's(3)', '.', 's(7)' ];
in2 = ['in_1', 's(2)', '.', '.', '.', '.', '.', 'in_2' ];
in3 = ['.', '.', '.', '.', '.', '.', '.', '.' ];
out1 = ['s(4)', '.', 's(6)', 's(0)', 's(1)', 's(5)', 's(7)', '.' ];
out2 = ['s(3)', '.', '.', '.', '.', '.', '.', '.' ];
out3 = ['s(2)', '.', '.', '.', '.', '.', '.', '.' ];
comm = [false, false, false, false, false, false, false, false ];
gas = [1, 1, 1, 1, 1, 1, 1, 1 ];
sz = [1, 1, 1, 1, 1, 1, 1, 1 ];
stor = [true, true, false, false, false, false, false, true ];
lb = [ 1, 1, 1, 1, 1, 1, 1, 1 ];
ub = [ 16, 16, 16, 16, 16, 16, 16, 16 ];
startstack = [ 'in_0', 'in_1', 'in_2', null, null, null, null, null, null ];
endstack = [ 's(4)', null, null, null, null, null, null, null, null ];
